
Gurobi 7.5.2 (linux64) logging started Sat Jul  7 16:00:01 2018

Changed value of parameter LogFile to result/ilp/simNo_8-n_100-m_40-s_7-minVAF_0.05-cov_10000-k_2-fn_0.25-fp_0.0001-na_0.15.ILP.gurobiSolverLog
   Prev: gurobi.log  Default: 
Changed value of parameter TimeLimit to 86400.0
   Prev: 1e+100  Min: 0.0  Max: 1e+100  Default: 1e+100
Optimize a model with 639293 rows, 10765 columns and 1940420 nonzeros
Variable types: 0 continuous, 10765 integer (10765 binary)
Coefficient statistics:
  Matrix range     [1e-04, 4e+00]
  Objective range  [1e+00, 3e+01]
  Bounds range     [1e+00, 1e+00]
  RHS range        [1e-01, 2e+00]
Found heuristic solution: objective -9515.357066
Presolve removed 139424 rows and 1115 columns (presolve time = 5s) ...
Presolve removed 140093 rows and 1115 columns (presolve time = 11s) ...
Presolve removed 206993 rows and 1784 columns (presolve time = 16s) ...
Presolve removed 206993 rows and 1784 columns
Presolve time: 15.61s
Presolved: 432300 rows, 8981 columns, 1297269 nonzeros
Variable types: 0 continuous, 8981 integer (8981 binary)
Presolved: 8981 rows, 441281 columns, 1306250 nonzeros

Presolve removed 8981 rows and 441281 columns

Root simplex log...

Iteration    Objective       Primal Inf.    Dual Inf.      Time
       0    5.2243104e+01   0.000000e+00   4.943700e+04     19s
   11845   -1.6493226e+02   0.000000e+00   1.652984e+05     20s
   34511   -2.4064221e+02   0.000000e+00   1.788465e+03     25s
   39002   -2.4311197e+02   0.000000e+00   0.000000e+00     27s
   39002   -2.4311197e+02   0.000000e+00   0.000000e+00     27s

Root relaxation: objective -2.431120e+02, 39002 iterations, 10.55 seconds
Total elapsed time = 52.84s
Total elapsed time = 58.84s
Total elapsed time = 65.06s

    Nodes    |    Current Node    |     Objective Bounds      |     Work
 Expl Unexpl |  Obj  Depth IntInf | Incumbent    BestBd   Gap | It/Node Time

     0     0 -243.11197    0 1499 -9515.3571 -243.11197  97.4%     -   72s
H    0     0                    -302.3608238 -243.11197  19.6%     -   76s
H    0     0                    -270.9209112 -243.11197  10.3%     -   76s
H    0     0                    -256.0015725 -243.11197  5.03%     -   78s
     0     0 -244.10659    0 1500 -256.00157 -244.10659  4.65%     -   90s
H    0     0                    -255.0069500 -244.10659  4.27%     -   95s
     0     0 -244.23092    0 1503 -255.00695 -244.23092  4.23%     -  104s
     0     0 -245.23264    0 1504 -255.00695 -245.23264  3.83%     -  139s
     0     0 -245.41380    0 1503 -255.00695 -245.41380  3.76%     -  198s
     0     0 -245.42033    0 1504 -255.00695 -245.42033  3.76%     -  205s
     0     0 -245.42650    0 1595 -255.00695 -245.42650  3.76%     -  218s
     0     0 -245.42650    0 1597 -255.00695 -245.42650  3.76%     -  225s
     0     0 -245.92381    0 1594 -255.00695 -245.92381  3.56%     -  278s
     0     0 -245.92381    0 1596 -255.00695 -245.92381  3.56%     -  288s
     0     0 -246.09488    0 1586 -255.00695 -246.09488  3.49%     -  424s
     0     0 -246.09488    0 1585 -255.00695 -246.09488  3.49%     -  428s
     0     0 -246.46567    0 1600 -255.00695 -246.46567  3.35%     -  562s
     0     0 -246.46567    0 1499 -255.00695 -246.46567  3.35%     -  604s
     0     0 -246.46567    0  400 -255.00695 -246.46567  3.35%     -  631s
     0     0 -246.52679    0  467 -255.00695 -246.52679  3.33%     -  635s
     0     0 -246.54557    0  476 -255.00695 -246.54557  3.32%     -  636s
     0     0 -246.55496    0  476 -255.00695 -246.55496  3.31%     -  638s
     0     0 -247.55598    0 1576 -255.00695 -247.55598  2.92%     -  652s
     0     0 -247.60276    0  480 -255.00695 -247.60276  2.90%     -  658s
     0     0 -247.62557    0  473 -255.00695 -247.62557  2.89%     -  663s
     0     0 -247.64837    0  472 -255.00695 -247.64837  2.89%     -  668s
     0     0 -247.64837    0  475 -255.00695 -247.64837  2.89%     -  669s
     0     0 -247.67118    0  464 -255.00695 -247.67118  2.88%     -  673s
H    0     0                    -253.0177048 -247.67118  2.11%     -  675s
     0     0 -247.70539    0  461 -253.01770 -247.70539  2.10%     -  679s
     0     0 -247.70539    0  467 -253.01770 -247.70539  2.10%     -  680s
     0     0 -248.09088    0  426 -253.01770 -248.09088  1.95%     -  701s
     0     0 -248.09088    0  382 -253.01770 -248.09088  1.95%     -  718s
     0     0 -248.09462    0  206 -253.01770 -248.09462  1.95%     -  722s
     0     0 -248.31826    0  205 -253.01770 -248.31826  1.86%     -  723s
     0     0 -248.59055    0  413 -253.01770 -248.59055  1.75%     -  724s
     0     0 -248.62479    0  219 -253.01770 -248.62479  1.74%     -  725s
     0     0 -248.65304    0  441 -253.01770 -248.65304  1.73%     -  726s
     0     0 -248.66892    0  442 -253.01770 -248.66892  1.72%     -  726s
     0     0 -248.66892    0  405 -253.01770 -248.66892  1.72%     -  727s
     0     0 -248.66892    0  409 -253.01770 -248.66892  1.72%     -  728s
     0     0 -248.75115    0  530 -253.01770 -248.75115  1.69%     -  729s
     0     0 -248.80604    0  416 -253.01770 -248.80604  1.66%     -  730s
     0     0 -248.80929    0  411 -253.01770 -248.80929  1.66%     -  730s
     0     0 -248.80929    0  413 -253.01770 -248.80929  1.66%     -  731s
     0     0 -248.95266    0  418 -253.01770 -248.95266  1.61%     -  731s
     0     0 -248.97351    0  462 -253.01770 -248.97351  1.60%     -  733s
     0     0 -248.97928    0  480 -253.01770 -248.97928  1.60%     -  733s
     0     0 -248.98091    0  499 -253.01770 -248.98091  1.60%     -  734s
     0     0 -249.41949    0  423 -253.01770 -249.41949  1.42%     -  735s
     0     0 -249.42601    0  219 -253.01770 -249.42601  1.42%     -  736s
     0     0 -249.42601    0  219 -253.01770 -249.42601  1.42%     -  736s
     0     0 -249.60888    0  391 -253.01770 -249.60888  1.35%     -  741s
     0     0 -249.60888    0  288 -253.01770 -249.60888  1.35%     -  744s
     0     0 -249.60888    0  482 -253.01770 -249.60888  1.35%     -  745s
     0     0 -249.60888    0  211 -253.01770 -249.60888  1.35%     -  745s
     0     0 -249.60888    0  292 -253.01770 -249.60888  1.35%     -  745s
     0     0 -249.60888    0  298 -253.01770 -249.60888  1.35%     -  745s
     0     0 -249.60888    0  297 -253.01770 -249.60888  1.35%     -  746s
     0     0 -249.60888    0  296 -253.01770 -249.60888  1.35%     -  746s
     0     0 -249.61246    0  296 -253.01770 -249.61246  1.35%     -  746s
     0     0 -249.84210    0  293 -253.01770 -249.84210  1.26%     -  747s
     0     0 -249.84210    0  237 -253.01770 -249.84210  1.26%     -  748s
     0     0 -249.84210    0  374 -253.01770 -249.84210  1.26%     -  748s
     0     0 -249.84210    0  262 -253.01770 -249.84210  1.26%     -  748s
     0     0 -249.84210    0  262 -253.01770 -249.84210  1.26%     -  748s
     0     0 -249.90921    0  269 -253.01770 -249.90921  1.23%     -  748s
     0     0 -249.90926    0  271 -253.01770 -249.90926  1.23%     -  748s
     0     0 -249.90974    0  277 -253.01770 -249.90974  1.23%     -  748s
     0     0 -249.91784    0  276 -253.01770 -249.91784  1.23%     -  748s
     0     0 -249.91784    0  276 -253.01770 -249.91784  1.23%     -  749s
     0     0 -249.93601    0  266 -253.01770 -249.93601  1.22%     -  749s
     0     0 -249.93639    0  263 -253.01770 -249.93639  1.22%     -  749s
     0     0 -249.96101    0  266 -253.01770 -249.96101  1.21%     -  749s
     0     0 -249.96318    0  272 -253.01770 -249.96318  1.21%     -  749s
     0     0 -249.96362    0  271 -253.01770 -249.96362  1.21%     -  749s
     0     0 -250.16223    0  268 -253.01770 -250.16223  1.13%     -  749s
     0     0 -250.18952    0  224 -253.01770 -250.18952  1.12%     -  750s
     0     0 -250.18952    0  223 -253.01770 -250.18952  1.12%     -  750s
     0     0 -250.30066    0  225 -253.01770 -250.30066  1.07%     -  750s
     0     0 -250.37485    0  224 -253.01770 -250.37485  1.04%     -  750s
     0     0 -250.37485    0  233 -253.01770 -250.37485  1.04%     -  750s
     0     0 -250.63061    0  236 -253.01770 -250.63061  0.94%     -  750s
     0     0 -250.68549    0  239 -253.01770 -250.68549  0.92%     -  750s
     0     0 -250.68857    0  240 -253.01770 -250.68857  0.92%     -  750s
     0     0 -250.69552    0  238 -253.01770 -250.69552  0.92%     -  750s
     0     0 -250.69552    0  239 -253.01770 -250.69552  0.92%     -  750s
     0     0 -250.93302    0  459 -253.01770 -250.93302  0.82%     -  750s
     0     0 -250.95954    0  457 -253.01770 -250.95954  0.81%     -  751s
     0     0 -250.99153    0  457 -253.01770 -250.99153  0.80%     -  751s
     0     0 -251.00157    0  457 -253.01770 -251.00157  0.80%     -  751s
     0     0 -251.00157    0  457 -253.01770 -251.00157  0.80%     -  751s
     0     0 -251.01997    0  461 -253.01770 -251.01997  0.79%     -  751s
     0     0 -251.08874    0  241 -253.01770 -251.08874  0.76%     -  751s
     0     0 -251.09596    0  464 -253.01770 -251.09596  0.76%     -  751s
     0     0 -251.09596    0  465 -253.01770 -251.09596  0.76%     -  751s
     0     0 -251.14781    0  235 -253.01770 -251.14781  0.74%     -  751s
     0     0 -251.23844    0  236 -253.01770 -251.23844  0.70%     -  751s
     0     0 -251.24949    0  237 -253.01770 -251.24949  0.70%     -  751s
     0     0 -251.25451    0  237 -253.01770 -251.25451  0.70%     -  752s
     0     0 -251.25530    0  239 -253.01770 -251.25530  0.70%     -  752s
     0     0 -251.37950    0  233 -253.01770 -251.37950  0.65%     -  752s
     0     0 -251.67362    0  234 -253.01770 -251.67362  0.53%     -  752s
     0     0 -251.67995    0  235 -253.01770 -251.67995  0.53%     -  752s
     0     0 -251.68813    0  236 -253.01770 -251.68813  0.53%     -  752s
     0     0 -251.68897    0  237 -253.01770 -251.68897  0.53%     -  752s
     0     0 -251.96932    0  234 -253.01770 -251.96932  0.41%     -  752s
     0     0 -251.99954    0  229 -253.01770 -251.99954  0.40%     -  752s
     0     0 -252.00345    0  230 -253.01770 -252.00345  0.40%     -  752s
     0     0 -252.00345    0  231 -253.01770 -252.00345  0.40%     -  752s
     0     0 -252.05097    0  229 -253.01770 -252.05097  0.38%     -  753s
     0     0 -252.05097    0  228 -253.01770 -252.05097  0.38%     -  753s
     0     0 -252.05097    0  215 -253.01770 -252.05097  0.38%     -  753s
     0     0 -252.05097    0  202 -253.01770 -252.05097  0.38%     -  753s
     0     0 -252.05097    0  202 -253.01770 -252.05097  0.38%     -  753s
     0     0 -252.05097    0  214 -253.01770 -252.05097  0.38%     -  753s
     0     0 -252.05097    0  206 -253.01770 -252.05097  0.38%     -  753s
     0     0 -252.05097    0  213 -253.01770 -252.05097  0.38%     -  753s
     0     0 -252.05097    0  210 -253.01770 -252.05097  0.38%     -  753s
     0     0 -252.05825    0  212 -253.01770 -252.05825  0.38%     -  753s
     0     0 -252.05992    0  201 -253.01770 -252.05992  0.38%     -  753s
     0     0 -252.05992    0  201 -253.01770 -252.05992  0.38%     -  753s
     0     0 -252.15280    0  211 -253.01770 -252.15280  0.34%     -  754s

Explored 1 nodes (181473 simplex iterations) in 754.21 seconds
Thread count was 1 (of 80 available processors)

Solution count 10: -253.018 -253.018 -253.018 ... -270.921

Optimal solution found (tolerance 1.00e-04)
Best objective -2.530177048028e+02, best bound -2.530177048028e+02, gap 0.0000%
